max:  3 y1 + 7 y2 + 3 y3 + 4 y4 + 3 y5 + 2 y6 + 4 y7 + 5 y8 + 4 y9 + 8 y10 + 4 y11 + 4 y12 + 4 y13 + 9 y14 + 5 y15 + 4 y16 + 1 y17 + 2 y18 + 1 y19 + 2 y20 + 1 y21 + 4 y22 + 4 y23 + 5 y24 + 4 y25 + 2 y26 + 6 y27 + 3 y28 + 1 y29 + 7 y30 + 5 y31 + 1 y32 + 2 y33 + 2 y34 + 4 y35 + 10 y36 + 3 y37 + 1 y38 + 4 y39 + 6 y40 + 3 y41 + 2 y42 + 2 y43 + 7 y44 + 2 y45 + 1 y46 + 2 y47 + 9 y48 ;

bin y1,y2,y3,y4,y5,y6,y7,y8,y9,y10,y11,y12,y13,y14,y15,y16,y17,y18,y19,y20,y21,y22,y23,y24,y25,y26,y27,y28,y29,y30,y31,y32,y33,y34,y35,y36,y37,y38,y39,y40,y41,y42,y43,y44,y45,y46,y47,y48;